\ Model Roadef challenge
\ LP format - for model browsing. Use MPS format to capture full model detail.
Minimize
  0 y[1,0] + 0 y[1,1] + 0 risk_s_t[1,0] + 0 risk_s_t[1,1]
   + 0.1666666666666667 risk_bar_t[0] + 0.1666666666666667 risk_bar_t[1]
   + 0.1666666666666667 risk_bar_t[2] + 0.1666666666666667 excess[0]
   + 0.1666666666666667 excess[1] + 0.1666666666666667 excess[2]
Subject To
 R0: z[0,0] + z[0,1] + z[0,2] = 1
 R1: z[1,0] + z[1,1] + z[1,2] = 1
 R2: z[2,0] + z[2,1] + z[2,2] = 1
 R3: - z[0,0] + w[0,0] >= 0
 R4: - z[0,1] + w[0,1] >= 0
 R5: - z[0,2] + w[0,2] >= 0
 R6: - z[1,0] + w[1,0] >= 0
 R7: - z[1,1] + w[1,1] >= 0
 R8: - z[1,2] + w[1,2] >= 0
 R9: - z[2,0] + w[2,0] >= 0
 R10: - z[2,1] + w[2,1] >= 0
 R11: - z[2,2] + w[2,2] >= 0
 R12: 3 z[0,0] <= 3
 R13: 4 z[0,1] <= 3
 R14: 4 z[0,2] <= 3
 R15: z[1,0] <= 3
 R16: 2 z[1,1] <= 3
 R17: 3 z[1,2] <= 3
 R18: z[2,0] <= 3
 R19: 2 z[2,1] <= 3
 R20: 4 z[2,2] <= 3
 R21: w[1,0] + w[2,0] <= 1
 R22: w[1,1] + w[2,1] <= 1
 R23: w[1,2] + w[2,2] <= 1
 R24: - z[0,0] - w[0,0] + beta[0,0,0] >= -1
 R25: - z[0,0] - w[0,1] + beta[0,1,0] >= -1
 R26: - z[0,1] - w[0,1] + beta[0,1,1] >= -1
 R27: - z[0,0] - w[0,2] + beta[0,2,0] >= -1
 R28: - z[0,1] - w[0,2] + beta[0,2,1] >= -1
 R29: - z[0,2] - w[0,2] + beta[0,2,2] >= -1
 R30: - z[1,0] - w[1,0] + beta[1,0,0] >= -1
 R31: - z[1,0] - w[1,1] + beta[1,1,0] >= -1
 R32: - z[1,1] - w[1,1] + beta[1,1,1] >= -1
 R33: - z[1,0] - w[1,2] + beta[1,2,0] >= -1
 R34: - z[1,1] - w[1,2] + beta[1,2,1] >= -1
 R35: - z[1,2] - w[1,2] + beta[1,2,2] >= -1
 R36: - z[2,0] - w[2,0] + beta[2,0,0] >= -1
 R37: - z[2,0] - w[2,1] + beta[2,1,0] >= -1
 R38: - z[2,1] - w[2,1] + beta[2,1,1] >= -1
 R39: - z[2,0] - w[2,2] + beta[2,2,0] >= -1
 R40: - z[2,1] - w[2,2] + beta[2,2,1] >= -1
 R41: - z[2,2] - w[2,2] + beta[2,2,2] >= -1
 R42: 31 beta[0,0,0] + 14 beta[1,0,0] + 5 beta[2,0,0] >= 10
 R43: 14 beta[1,1,1] + 5 beta[2,1,1] >= 0
 R44: 8 beta[0,2,0] + 14 beta[1,2,2] >= 6
 R45: 31 beta[0,0,0] + 14 beta[1,0,0] + 5 beta[2,0,0] <= 49
 R46: 14 beta[1,1,1] + 5 beta[2,1,1] <= 23
 R47: 8 beta[0,2,0] + 14 beta[1,2,2] <= 15
 R48: - 7 beta[0,0,0] - 8 beta[1,0,0] - 2 beta[2,0,0] + risk_s_t[0,0] = 0
 R49: - 4 beta[0,1,0] - 5 beta[1,1,1] - 6 beta[2,1,1] + risk_s_t[0,1] = 0
 R50: - 2 beta[0,2,0] - 6 beta[1,2,2] + risk_s_t[0,2] = 0
 R51: - 20 beta[0,2,0] - 8 beta[1,2,2] + risk_s_t[1,2] = 0
 R52: - risk_s_t[0,0] + risk_bar_t[0] = 0
 R53: - risk_s_t[0,1] + risk_bar_t[1] = 0
 R54: - 0.5 risk_s_t[0,2] - 0.5 risk_s_t[1,2] + risk_bar_t[2] = 0
 R55: y[0,0] >= 0.5
 R56: y[0,1] >= 0.5
 R57: y[0,2] + y[1,2] >= 1
 R58: y[0,0] <= 1.5
 R59: y[0,1] <= 1.5
 R60: y[0,2] + y[1,2] <= 2
 R61: 10 y[0,2] - 10 y[1,2] + risk_s_t[0,2] - risk_s_t[1,2] >= -10
 R62: - 10 y[0,2] + 10 y[1,2] - risk_s_t[0,2] + risk_s_t[1,2] >= -10
 R63: - 10 y[0,0] - risk_s_t[0,0] + q_t[0] >= -10
 R64: - 10 y[0,1] - risk_s_t[0,1] + q_t[1] >= -10
 R65: - 10 y[0,2] - risk_s_t[0,2] + q_t[2] >= -10
 R66: - 10 y[1,2] - risk_s_t[1,2] + q_t[2] >= -10
 R67: excess[0] >= 0
 R68: excess[1] >= 0
 R69: excess[2] >= 0
 R70: risk_bar_t[0] - q_t[0] + excess[0] >= 0
 R71: risk_bar_t[1] - q_t[1] + excess[1] >= 0
 R72: risk_bar_t[2] - q_t[2] + excess[2] >= 0
 R73: - 3 z[0,0] + w[0,0] + w[0,1] + w[0,2] >= 0
 R74: - 3 z[0,1] + w[0,1] + w[0,2] >= 0
 R75: - 2 z[0,2] + w[0,2] >= 0
 R76: - z[1,0] + w[1,0] + w[1,1] + w[1,2] >= 0
 R77: - z[1,1] + w[1,1] + w[1,2] >= 0
 R78: - z[1,2] + w[1,2] >= 0
 R79: - z[2,0] + w[2,0] + w[2,1] + w[2,2] >= 0
 R80: - z[2,1] + w[2,1] + w[2,2] >= 0
 R81: - 2 z[2,2] + w[2,2] >= 0
Bounds
Binaries
 z[0,0] z[0,1] z[0,2] z[1,0] z[1,1] z[1,2] z[2,0] z[2,1] z[2,2] w[0,0]
 w[0,1] w[0,2] w[1,0] w[1,1] w[1,2] w[2,0] w[2,1] w[2,2] y[0,0] y[0,1]
 y[0,2] y[1,0] y[1,1] y[1,2] beta[0,0,0] beta[0,1,0] beta[0,1,1]
 beta[0,2,0] beta[0,2,1] beta[0,2,2] beta[1,0,0] beta[1,1,0] beta[1,1,1]
 beta[1,2,0] beta[1,2,1] beta[1,2,2] beta[2,0,0] beta[2,1,0] beta[2,1,1]
 beta[2,2,0] beta[2,2,1] beta[2,2,2]
End
